W=8;
H=5;

MAX_TIME=15;
MAX_TRACKS=14;

TARGET=(3,8);

N_TRAINS=3;
TRAINS=[(3,1,RIGHT),(3,3,RIGHT),(3,5,RIGHT)];

N_INIT_POS=4;
INIT_POS=[
(3,1,STRAIGHT_RL),
(3,3,STRAIGHT_RL),
(3,5,STRAIGHT_RL),
(3,8,STRAIGHT_RL),
];
N_TUNNELS=2;
TUNNEL_PAIRS=[
  (1, 5, DOWN, 5, 3, TOP),
  (1, 3, DOWN, 5, 5, TOP),
];

N_GATES=0;
GATES=[];
N_ACTIVATIONS=0;
ACTIVATIONS=[];

N_DSWITCHES=0;
DSWITCHES=[];
N_STATIONS=0;
STATIONS=[];
